197 28 187 153 2 100 192 104 73 60 32 171 105 34 107 31 45 125 156 66 50 188 190 88 10 72 173 180 164 85 25 1 191 130 110 123 36 71 95 134 11 57 62 91 116 54 126 13 148 101 163 160 79 177 143 59 56 29 53 122 194 39 78 63 174 199 6 27 12 149 129 3 108 146 113 106 83 183 21 17 67 119 131 181 19 98 15 154 124 7 118 97 182 5 165 185 184 82 43 102 92 89 137 22 64 179 139 196 94 151 0 16 135 193 195 176 42 69 167 140 24 96 51 80 178 162 189 35 127 47 38 4 75 109 14 87 170 147 48 138 121 90 77 70 142 158 112 186 150 136 40 37 41 103 155 9 144 61 120 133 99 55 93 58 20 86 84 68 159 117 26 49 114 152 169 157 23 172 65 111 132 74 145 46 81 115 168 175 30 33 44 141 128 18 166 161 8 198 52 76 

